Test: fpga12_11_sat.cnf
Options: -print-activity -no-inverting-opt -sym-usage-var-bump
WARNING: for repeatability, setting FPU to use double precision
============================[ Problem Statistics ]=============================
|                                                                             |
|  Number of symmetries:           29                                         |
|  Number of invertingSyms:         0                                         |
|  Number of variables:           198                                         |
|  Number of clauses:             968                                         |
|  Parse time:                   0.00 s                                       |
|                                                                             |
============================[ Search Statistics ]==============================
| Conflicts |          ORIGINAL         |          LEARNT          | Progress |
|           |    Vars  Clauses Literals |    Limit  Clauses Lit/Cl |          |
===============================================================================
ActiveSyms: 29
ActiveSyms: 27
ActiveSyms: 25
ActiveSyms: 25
ActiveSyms: 25
ActiveSyms: 25
ActiveSyms: 25
ActiveSyms: 26
ActiveSyms: 24
ActiveSyms: 24
ActiveSyms: 24
ActiveSyms: 24
ActiveSyms: 24
ActiveSyms: 26
ActiveSyms: 24
ActiveSyms: 24
ActiveSyms: 24
ActiveSyms: 24
ActiveSyms: 24
ActiveSyms: 26
ActiveSyms: 24
ActiveSyms: 24
ActiveSyms: 24
ActiveSyms: 24
ActiveSyms: 24
ActiveSyms: 26
ActiveSyms: 24
ActiveSyms: 24
ActiveSyms: 24
ActiveSyms: 24
ActiveSyms: 24
ActiveSyms: 26
ActiveSyms: 25
ActiveSyms: 25
ActiveSyms: 25
ActiveSyms: 25
ActiveSyms: 25
ActiveSyms: 27
ActiveSyms: 25
ActiveSyms: 25
ActiveSyms: 25
ActiveSyms: 25
ActiveSyms: 26
ActiveSyms: 24
ActiveSyms: 24
ActiveSyms: 24
ActiveSyms: 24
ActiveSyms: 26
ActiveSyms: 24
ActiveSyms: 24
ActiveSyms: 24
ActiveSyms: 24
ActiveSyms: 26
ActiveSyms: 24
ActiveSyms: 24
ActiveSyms: 24
ActiveSyms: 24
ActiveSyms: 26
ActiveSyms: 24
ActiveSyms: 22
ActiveSyms: 22
ActiveSyms: 23
ActiveSyms: 26
ActiveSyms: 24
ActiveSyms: 22
ActiveSyms: 21
ActiveSyms: 21
ActiveSyms: 21
ActiveSyms: 21
ActiveSyms: 21
ActiveSyms: 20
ActiveSyms: 21
ActiveSyms: 22
ActiveSyms: 21
ActiveSyms: 22
ActiveSyms: 21
ActiveSyms: 26
ActiveSyms: 24
ActiveSyms: 22
ActiveSyms: 22
ActiveSyms: 22
ActiveSyms: 20
ActiveSyms: 19
ActiveSyms: 19
ActiveSyms: 20
ActiveSyms: 21
ActiveSyms: 20
ActiveSyms: 18
ActiveSyms: 20
ActiveSyms: 22
ActiveSyms: 19
ActiveSyms: 19
ActiveSyms: 19
ActiveSyms: 18
ActiveSyms: 19
ActiveSyms: 22
ActiveSyms: 20
ActiveSyms: 19
ActiveSyms: 18
ActiveSyms: 18
ActiveSyms: 20
ActiveSyms: 18
ActiveSyms: 18
ActiveSyms: 20
ActiveSyms: 20
ActiveSyms: 21
ActiveSyms: 20
ActiveSyms: 19
ActiveSyms: 19
ActiveSyms: 18
ActiveSyms: 19
ActiveSyms: 20
ActiveSyms: 22
ActiveSyms: 22
ActiveSyms: 22
ActiveSyms: 22
ActiveSyms: 27
ActiveSyms: 25
ActiveSyms: 22
ActiveSyms: 22
ActiveSyms: 20
ActiveSyms: 22
ActiveSyms: 20
ActiveSyms: 22
ActiveSyms: 20
ActiveSyms: 17
ActiveSyms: 17
ActiveSyms: 18
ActiveSyms: 19
ActiveSyms: 18
ActiveSyms: 19
ActiveSyms: 20
ActiveSyms: 20
ActiveSyms: 21
ActiveSyms: 19
ActiveSyms: 20
ActiveSyms: 19
ActiveSyms: 21
ActiveSyms: 19
ActiveSyms: 19
ActiveSyms: 18
ActiveSyms: 19
ActiveSyms: 19
ActiveSyms: 21
ActiveSyms: 19
ActiveSyms: 21
ActiveSyms: 20
ActiveSyms: 18
ActiveSyms: 20
ActiveSyms: 20
ActiveSyms: 18
ActiveSyms: 20
ActiveSyms: 19
ActiveSyms: 18
ActiveSyms: 18
ActiveSyms: 17
ActiveSyms: 17
ActiveSyms: 18
ActiveSyms: 17
ActiveSyms: 18
ActiveSyms: 17
ActiveSyms: 17
ActiveSyms: 17
ActiveSyms: 17
ActiveSyms: 17
ActiveSyms: 19
ActiveSyms: 18
ActiveSyms: 18
ActiveSyms: 17
ActiveSyms: 17
ActiveSyms: 20
ActiveSyms: 22
ActiveSyms: 20
ActiveSyms: 22
ActiveSyms: 20
ActiveSyms: 22
ActiveSyms: 22
ActiveSyms: 27
ActiveSyms: 25
ActiveSyms: 21
ActiveSyms: 22
ActiveSyms: 19
ActiveSyms: 18
ActiveSyms: 19
ActiveSyms: 21
ActiveSyms: 20
ActiveSyms: 19
ActiveSyms: 20
ActiveSyms: 20
ActiveSyms: 18
ActiveSyms: 18
ActiveSyms: 18
ActiveSyms: 17
ActiveSyms: 20
ActiveSyms: 19
ActiveSyms: 19
ActiveSyms: 18
ActiveSyms: 18
ActiveSyms: 18
ActiveSyms: 18
ActiveSyms: 17
ActiveSyms: 18
ActiveSyms: 18
ActiveSyms: 19
ActiveSyms: 21
ActiveSyms: 20
ActiveSyms: 22
ActiveSyms: 22
ActiveSyms: 20
ActiveSyms: 18
ActiveSyms: 18
ActiveSyms: 17
ActiveSyms: 16
ActiveSyms: 16
ActiveSyms: 16
ActiveSyms: 17
ActiveSyms: 18
ActiveSyms: 18
ActiveSyms: 16
ActiveSyms: 16
ActiveSyms: 16
ActiveSyms: 16
ActiveSyms: 17
ActiveSyms: 16
ActiveSyms: 18
ActiveSyms: 17
ActiveSyms: 17
ActiveSyms: 16
ActiveSyms: 17
ActiveSyms: 16
ActiveSyms: 16
ActiveSyms: 15
ActiveSyms: 16
ActiveSyms: 15
ActiveSyms: 14
ActiveSyms: 18
ActiveSyms: 17
ActiveSyms: 18
ActiveSyms: 17
ActiveSyms: 18
ActiveSyms: 18
ActiveSyms: 20
ActiveSyms: 17
ActiveSyms: 17
ActiveSyms: 17
ActiveSyms: 17
ActiveSyms: 18
ActiveSyms: 18
ActiveSyms: 17
ActiveSyms: 18
ActiveSyms: 17
ActiveSyms: 16
ActiveSyms: 18
ActiveSyms: 17
ActiveSyms: 18
ActiveSyms: 17
ActiveSyms: 18
ActiveSyms: 17
ActiveSyms: 18
ActiveSyms: 17
ActiveSyms: 18
ActiveSyms: 18
ActiveSyms: 18
ActiveSyms: 19
ActiveSyms: 17
ActiveSyms: 20
ActiveSyms: 22
ActiveSyms: 18
ActiveSyms: 16
ActiveSyms: 15
ActiveSyms: 15
ActiveSyms: 15
ActiveSyms: 15
ActiveSyms: 16
ActiveSyms: 14
ActiveSyms: 14
ActiveSyms: 15
ActiveSyms: 17
ActiveSyms: 18
ActiveSyms: 16
ActiveSyms: 17
ActiveSyms: 16
ActiveSyms: 14
ActiveSyms: 13
ActiveSyms: 12
ActiveSyms: 13
ActiveSyms: 14
ActiveSyms: 14
ActiveSyms: 13
ActiveSyms: 17
ActiveSyms: 18
ActiveSyms: 17
ActiveSyms: 17
ActiveSyms: 18
ActiveSyms: 17
ActiveSyms: 15
ActiveSyms: 15
ActiveSyms: 14
ActiveSyms: 14
ActiveSyms: 14
ActiveSyms: 14
ActiveSyms: 15
|       100 |     198      968     2640 |      354      220     40 |  0.003 % |
ActiveSyms: 16
ActiveSyms: 29
ActiveSyms: 25
ActiveSyms: 23
ActiveSyms: 25
ActiveSyms: 22
ActiveSyms: 23
ActiveSyms: 25
ActiveSyms: 23
ActiveSyms: 25
ActiveSyms: 22
ActiveSyms: 20
ActiveSyms: 18
ActiveSyms: 18
ActiveSyms: 18
ActiveSyms: 18
ActiveSyms: 19
ActiveSyms: 19
ActiveSyms: 21
ActiveSyms: 19
ActiveSyms: 19
ActiveSyms: 19
ActiveSyms: 19
ActiveSyms: 20
ActiveSyms: 19
ActiveSyms: 19
ActiveSyms: 19
ActiveSyms: 19
ActiveSyms: 21
ActiveSyms: 20
ActiveSyms: 18
ActiveSyms: 20
ActiveSyms: 19
ActiveSyms: 19
ActiveSyms: 18
ActiveSyms: 17
ActiveSyms: 17
ActiveSyms: 17
ActiveSyms: 17
ActiveSyms: 18
ActiveSyms: 18
ActiveSyms: 17
ActiveSyms: 18
ActiveSyms: 17
ActiveSyms: 18
ActiveSyms: 18
ActiveSyms: 18
ActiveSyms: 17
ActiveSyms: 16
ActiveSyms: 15
ActiveSyms: 15
ActiveSyms: 14
ActiveSyms: 13
ActiveSyms: 13
ActiveSyms: 11
ActiveSyms: 11
ActiveSyms: 12
ActiveSyms: 11
ActiveSyms: 11
ActiveSyms: 12
ActiveSyms: 12
ActiveSyms: 11
ActiveSyms: 11
ActiveSyms: 12
ActiveSyms: 12
ActiveSyms: 11
ActiveSyms: 11
ActiveSyms: 9
ActiveSyms: 10
ActiveSyms: 9
ActiveSyms: 9
ActiveSyms: 9
ActiveSyms: 10
ActiveSyms: 9
ActiveSyms: 10
ActiveSyms: 9
ActiveSyms: 7
ActiveSyms: 7
ActiveSyms: 6
ActiveSyms: 6
ActiveSyms: 6
ActiveSyms: 6
ActiveSyms: 5
ActiveSyms: 5
ActiveSyms: 5
ActiveSyms: 5
ActiveSyms: 5
ActiveSyms: 9
ActiveSyms: 6
ActiveSyms: 6
ActiveSyms: 6
ActiveSyms: 6
ActiveSyms: 5
ActiveSyms: 9
ActiveSyms: 10
ActiveSyms: 9
ActiveSyms: 8
ActiveSyms: 8
ActiveSyms: 8
ActiveSyms: 9
ActiveSyms: 8
ActiveSyms: 9
ActiveSyms: 8
ActiveSyms: 9
ActiveSyms: 9
ActiveSyms: 8
ActiveSyms: 8
ActiveSyms: 8
ActiveSyms: 9
ActiveSyms: 8
ActiveSyms: 9
ActiveSyms: 8
ActiveSyms: 9
ActiveSyms: 10
ActiveSyms: 12
ActiveSyms: 14
ActiveSyms: 12
ActiveSyms: 12
ActiveSyms: 12
ActiveSyms: 12
ActiveSyms: 10
ActiveSyms: 10
ActiveSyms: 10
ActiveSyms: 10
ActiveSyms: 10
ActiveSyms: 10
ActiveSyms: 10
ActiveSyms: 10
ActiveSyms: 10
ActiveSyms: 11
ActiveSyms: 8
ActiveSyms: 8
ActiveSyms: 7
ActiveSyms: 6
ActiveSyms: 8
ActiveSyms: 8
ActiveSyms: 7
ActiveSyms: 7
ActiveSyms: 8
ActiveSyms: 8
ActiveSyms: 7
ActiveSyms: 7
ActiveSyms: 6
ActiveSyms: 7
ActiveSyms: 7
ActiveSyms: 6
ActiveSyms: 5
ActiveSyms: 5
ActiveSyms: 5
ActiveSyms: 4
ActiveSyms: 2
ActiveSyms: 1
ActiveSyms: 0
ActiveSyms: 2
ActiveSyms: 4
ActiveSyms: 2
ActiveSyms: 2
ActiveSyms: 1
ActiveSyms: 0
ActiveSyms: 0
ActiveSyms: 0
ActiveSyms: 0
ActiveSyms: 0
ActiveSyms: 0
ActiveSyms: 0
ActiveSyms: 0
ActiveSyms: 0
ActiveSyms: 0
ActiveSyms: 0
ActiveSyms: 0
ActiveSyms: 0
ActiveSyms: 0
===============================================================================
restarts              : 2
conflicts             : 115            (28750 /sec)
symconflicts          : 23             (5750 /sec)
decisions             : 358            (0.00 % random) (89500 /sec)
propagations          : 2726           (681500 /sec)
sympropagations       : 131            (32750 /sec)
conflict literals     : 4183           (1.62 % deleted)
literals     : 4183           (1.62 % deleted)

HEURISTIC USAGES
random                : 0           
activity w/ lookahead : 0           
activity no lookahead : 0           
original sp           : 357         
sym count             : 0           

Memory used           : 5.00 MB
CPU time              : 0.004 s

SATISFIABLE
